data;

param n := 3;

param A: 1 2 3 4 5 6 7 8 9 := 
       1 5 . . 1 . . 8 . .
       2 3 . . . . 6 7 . .
       3 . 1 7 3 5 8 . . .
       4 1 . 5 . . . . . .
       5 . 4 . . . . . 6 .
       6 . . . . . . 9 . 2
       7 . . . 4 8 7 1 3 .
       8 . . 3 9 . . . . 8
       9 . . 1 . . 3 . . 7
;
